c description: There is a graph of 8 vertices with a 2-clique and a 2-coloring
c generator: CNFgen (0.9.0)
c copyright: (C) 2012-2020 Massimo Lauria <massimo.lauria@uniroma1.it>
c url: https://massimolauria.net/cnfgen
c
p cnf 60 194
-29 -30 0
-29 -31 0
-29 -32 0
-29 -33 0
-29 -34 0
-29 -35 0
-29 -36 0
-30 -31 0
-30 -32 0
-30 -33 0
-30 -34 0
-30 -35 0
-30 -36 0
-31 -32 0
-31 -33 0
-31 -34 0
-31 -35 0
-31 -36 0
-32 -33 0
-32 -34 0
-32 -35 0
-32 -36 0
-33 -34 0
-33 -35 0
-33 -36 0
-34 -35 0
-34 -36 0
-35 -36 0
29 30 31 32 33 34 35 36 0
-37 -38 0
-37 -39 0
-37 -40 0
-37 -41 0
-37 -42 0
-37 -43 0
-37 -44 0
-38 -39 0
-38 -40 0
-38 -41 0
-38 -42 0
-38 -43 0
-38 -44 0
-39 -40 0
-39 -41 0
-39 -42 0
-39 -43 0
-39 -44 0
-40 -41 0
-40 -42 0
-40 -43 0
-40 -44 0
-41 -42 0
-41 -43 0
-41 -44 0
-42 -43 0
-42 -44 0
-43 -44 0
37 38 39 40 41 42 43 44 0
-29 -37 0
-30 -38 0
-31 -39 0
-32 -40 0
-33 -41 0
-34 -42 0
-35 -43 0
-36 -44 0
1 -29 -38 0
1 -37 -30 0
2 -29 -39 0
2 -37 -31 0
3 -29 -40 0
3 -37 -32 0
4 -29 -41 0
4 -37 -33 0
5 -29 -42 0
5 -37 -34 0
6 -29 -43 0
6 -37 -35 0
7 -29 -44 0
7 -37 -36 0
8 -30 -39 0
8 -38 -31 0
9 -30 -40 0
9 -38 -32 0
10 -30 -41 0
10 -38 -33 0
11 -30 -42 0
11 -38 -34 0
12 -30 -43 0
12 -38 -35 0
13 -30 -44 0
13 -38 -36 0
14 -31 -40 0
14 -39 -32 0
15 -31 -41 0
15 -39 -33 0
16 -31 -42 0
16 -39 -34 0
17 -31 -43 0
17 -39 -35 0
18 -31 -44 0
18 -39 -36 0
19 -32 -41 0
19 -40 -33 0
20 -32 -42 0
20 -40 -34 0
21 -32 -43 0
21 -40 -35 0
22 -32 -44 0
22 -40 -36 0
23 -33 -42 0
23 -41 -34 0
24 -33 -43 0
24 -41 -35 0
25 -33 -44 0
25 -41 -36 0
26 -34 -43 0
26 -42 -35 0
27 -34 -44 0
27 -42 -36 0
28 -35 -44 0
28 -43 -36 0
-45 -46 0
45 46 0
-47 -48 0
47 48 0
-49 -50 0
49 50 0
-51 -52 0
51 52 0
-53 -54 0
53 54 0
-55 -56 0
55 56 0
-57 -58 0
57 58 0
-59 -60 0
59 60 0
-1 -45 -47 0
-1 -46 -48 0
-2 -45 -49 0
-2 -46 -50 0
-3 -45 -51 0
-3 -46 -52 0
-4 -45 -53 0
-4 -46 -54 0
-5 -45 -55 0
-5 -46 -56 0
-6 -45 -57 0
-6 -46 -58 0
-7 -45 -59 0
-7 -46 -60 0
-8 -47 -49 0
-8 -48 -50 0
-9 -47 -51 0
-9 -48 -52 0
-10 -47 -53 0
-10 -48 -54 0
-11 -47 -55 0
-11 -48 -56 0
-12 -47 -57 0
-12 -48 -58 0
-13 -47 -59 0
-13 -48 -60 0
-14 -49 -51 0
-14 -50 -52 0
-15 -49 -53 0
-15 -50 -54 0
-16 -49 -55 0
-16 -50 -56 0
-17 -49 -57 0
-17 -50 -58 0
-18 -49 -59 0
-18 -50 -60 0
-19 -51 -53 0
-19 -52 -54 0
-20 -51 -55 0
-20 -52 -56 0
-21 -51 -57 0
-21 -52 -58 0
-22 -51 -59 0
-22 -52 -60 0
-23 -53 -55 0
-23 -54 -56 0
-24 -53 -57 0
-24 -54 -58 0
-25 -53 -59 0
-25 -54 -60 0
-26 -55 -57 0
-26 -56 -58 0
-27 -55 -59 0
-27 -56 -60 0
-28 -57 -59 0
-28 -58 -60 0